p cnf 1141 1285
c ind 814 815 816 829 836 862 923 924 937 944 0
c ind 948 950 953 969 971 974 986 987 1006 1008 0
c ind 1012 1023 1024 1028 1029 1030 1034 1036 807 922 0
c ind 837 849 808 809 921 812 813 920 1126 1108 0
c ind 1117 1131 1094 1112 1122 1139 1095 1093 1125 1107 0
c ind 1116 1130 1111 1121 1138 1092 1124 1106 1115 1129 0
c ind 1110 1120 1137 1123 1105 1114 1128 1109 1119 1136 0
c ind 1090 1100 1104 1134 1091 1089 1084 1088 1087 1086 0
c ind 1085 1102 1132 1103 1133 1082 1083 1113 1127 1118 0
c ind 1135 1081 1076 1080 1079 1078 810 811 1077 1101 0
c ind 1074 1075 1067 1068 1073 1097 1072 1071 1070 1069 0
c ind 1065 1066 1064 1098 1063 1061 1062 1060 1055 1059 0
c ind 1058 1057 1056 1053 1054 1099 1052 1047 1051 1050 0
c ind 1049 1048 1096 1045 1046 1038 1039 1044 1043 1042 0
c ind 1041 1040 1018 1019 1017 1016 1015 1037 1027 1025 0
c ind 1026 1014 1013 1035 1022 1011 1033 1031 1032 1020 0
c ind 1021 1010 1009 1002 1007 1005 1003 1004 1001 994 0
c ind 993 1000 999 998 997 996 995 992 991 990 0
c ind 989 988 806 981 980 978 979 977 976 982 0
c ind 983 975 973 984 972 985 970 968 966 967 0
c ind 965 964 963 962 961 960 959 957 958 956 0
c ind 955 954 952 951 949 927 947 945 946 943 0
c ind 938 942 939 940 934 941 936 932 933 935 0
c ind 819 931 926 930 928 929 925 919 912 904 0
c ind 918 917 916 915 898 897 896 914 895 913 0
c ind 894 893 892 911 910 909 908 907 906 905 0
c ind 903 902 901 900 899 891 884 876 890 889 0
c ind 888 887 870 869 868 886 867 885 866 865 0
c ind 864 883 882 881 880 879 878 877 875 874 0
c ind 873 872 871 863 861 859 860 850 851 858 0
c ind 857 856 855 854 852 853 846 845 847 848 0
c ind 844 843 842 841 839 840 838 835 834 830 0
c ind 831 832 833 826 828 825 824 827 818 823 0
c ind 817 822 820 821 1 0
c ret 603 604 605 606 607 608 609 610 611 612 0
c ret 613 614 615 616 617 618 619 620 621 622 0
c ret 623 624 625 626 627 628 629 630 631 632 0
c ret 633 634 635 636 637 638 639 640 641 642 0
c ret 643 644 645 646 647 648 649 650 651 652 0
c ret 653 654 655 656 657 658 659 660 661 662 0
c ret 663 664 665 666 667 668 669 670 671 672 0
c ret 673 674 675 676 677 678 679 680 681 682 0
c ret 683 684 685 686 687 688 689 690 691 692 0
c ret 693 694 695 696 697 698 699 700 701 702 0
c ret 703 704 705 706 707 708 709 710 711 712 0
c ret 713 714 715 716 717 718 719 720 721 722 0
c ret 723 724 725 726 727 728 729 730 731 732 0
c ret 733 734 735 736 737 738 739 740 741 742 0
c ret 743 744 745 746 747 748 749 750 751 752 0
c ret 753 754 755 756 757 758 759 760 761 762 0
c ret 763 764 765 766 767 768 298 769 770 304 0
c ret 305 306 307 308 309 310 311 312 313 314 0
c ret 315 316 317 318 319 320 321 322 323 324 0
c ret 771 772 325 326 773 774 327 328 329 330 0
c ret 331 332 333 334 335 336 337 338 339 340 0
c ret 299 341 342 775 343 776 344 345 777 346 0
c ret 778 347 348 349 350 351 352 353 354 355 0
c ret 356 357 779 358 359 360 361 362 780 363 0
c ret 364 781 365 366 782 367 783 368 369 370 0
c ret 371 372 373 374 375 376 377 378 379 380 0
c ret 784 381 300 382 383 785 384 786 385 386 0
c ret 387 787 388 788 389 390 391 392 393 394 0
c ret 395 396 397 398 399 400 401 402 403 404 0
c ret 405 406 789 407 790 408 409 410 791 792 0
c ret 411 412 413 414 415 416 417 418 419 420 0
c ret 793 421 301 422 423 424 425 426 427 794 0
c ret 428 795 429 430 796 797 431 432 433 434 0
c ret 435 436 437 438 798 439 799 440 441 442 0
c ret 800 443 444 445 446 447 448 449 450 451 0
c ret 452 453 454 455 456 801 457 458 459 460 0
c ret 802 461 803 462 804 463 805 464 465 466 0
c ret 467 468 469 470 471 472 473 474 475 476 0
c ret 477 478 479 480 481 482 483 484 485 486 0
c ret 487 488 489 490 491 492 302 493 494 495 0
c ret 496 497 498 499 500 501 502 503 504 505 0
c ret 506 507 508 509 510 511 512 513 514 515 0
c ret 516 517 518 519 520 521 522 523 524 525 0
c ret 526 527 528 529 530 531 303 532 533 534 0
c ret 535 536 537 538 539 540 541 542 543 544 0
c ret 545 546 547 548 549 550 551 552 553 554 0
c ret 555 556 557 558 559 560 561 562 563 564 0
c ret 565 566 567 568 569 570 571 572 573 574 0
c ret 575 576 577 578 579 580 581 582 583 584 0
c ret 585 586 587 588 589 590 591 592 593 594 0
c ret 595 596 597 598 599 600 601 602 0
2 130 292 -293 0
2 3 292 -293 0
-2 293 0
-2 -292 0
-2 -3 -130 0
3 -4 -54 120 0
3 4 54 -110 0
3 4 54 120 0
3 -4 -54 -110 0
-3 4 -54 0
-3 -4 54 0
-3 110 -120 0
4 -5 -11 0
4 -5 48 0
-4 5 0
-4 11 -48 0
5 7 -1067 0
5 6 10 -1067 0
-5 1067 0
-5 -6 -7 0
-5 -7 -10 0
6 1038 0
6 -1039 -1045 0
6 1039 -1046 0
-6 -1038 1039 1046 0
-6 -1038 -1039 1045 0
7 -8 -9 0
-6 7 -9 0
-7 9 0
6 -7 8 0
-6 8 0
8 1047 -1054 0
8 -1047 -1053 0
6 -8 -1047 1053 0
6 -8 1047 1054 0
9 1038 0
9 -1039 1045 0
9 1039 1046 0
-9 -1038 1039 -1046 0
-9 -1038 -1039 -1045 0
-6 10 0
10 -1047 1053 0
10 1047 1054 0
6 -10 -1047 -1053 0
6 -10 1047 -1054 0
11 -12 -47 -1117 0
11 12 -13 -47 0
-11 47 0
-11 -12 1117 0
-11 12 13 0
12 1033 -1035 0
-12 -1033 0
-12 1035 0
13 -14 -1116 0
13 14 -15 0
-13 -14 1116 0
-13 14 15 0
14 1005 -1007 0
-14 -1005 0
-14 1007 0
15 16 39 46 0
15 16 39 -42 0
-15 -16 0
-15 -39 0
-15 42 -46 0
16 -37 806 -981 0
16 17 806 981 0
-16 -806 0
-16 37 -981 0
-16 -17 981 0
17 -18 -1113 0
-17 1113 0
-17 18 0
18 -19 33 0
-18 19 0
-18 -33 0
19 -26 27 0
19 20 27 -871 0
-19 -27 0
-19 -20 26 0
-19 26 871 0
20 21 0
20 24 -870 0
20 24 876 0
-20 -21 -24 0
-20 -21 870 -876 0
21 -22 23 -864 -871 0
-21 22 0
-21 -23 0
-21 864 0
-21 871 0
22 865 866 867 0
-22 -865 0
-22 -867 0
-22 -866 0
23 868 -869 0
-23 -868 0
-23 869 0
24 25 870 876 -877 0
-24 -870 0
-24 -25 0
-24 877 0
-24 -876 0
25 884 885 0
-25 -884 0
-25 -885 0
22 26 -864 0
23 26 -864 -870 0
-26 864 0
-22 -26 870 0
-22 -23 -26 0
27 29 32 0
27 29 -31 0
27 28 29 0
-27 -29 0
-27 -28 31 -32 0
28 893 894 895 0
-28 -893 0
-28 -895 0
-28 -894 0
28 29 -892 0
29 30 -892 -898 0
-29 892 0
-28 -29 898 0
-28 -29 -30 0
30 896 -897 0
-30 -896 0
-30 897 0
31 904 905 0
31 904 912 913 0
-31 -904 0
-31 -905 -912 0
-31 -905 -913 0
30 32 -892 898 -899 0
-32 899 0
-30 -32 0
-32 892 0
-32 -898 0
33 -34 -838 0
33 -36 -838 0
33 -35 -838 0
-33 838 0
-33 34 35 36 0
34 -839 840 841 0
-34 839 0
-34 -841 0
-34 -840 0
35 844 847 848 0
-35 -844 0
-35 -848 0
-35 -847 0
36 -844 845 846 0
-36 844 0
-36 -846 0
-36 -845 0
37 -38 1114 0
17 37 38 0
-37 -38 -1114 0
-17 -37 38 0
38 947 -949 0
-38 -947 0
-38 949 0
39 -40 -41 -991 0
39 -40 -41 -992 0
-39 41 0
-39 40 0
-39 991 992 0
40 994 995 996 997 0
-40 -997 0
-40 -996 0
-40 -994 0
-40 -995 0
41 -988 -989 -990 993 0
-41 990 0
-41 -993 0
-41 988 0
-41 989 0
37 42 -43 0
-37 -42 0
-42 43 0
43 44 45 0
-43 -44 0
-43 -45 0
44 968 -970 0
-44 -968 0
-44 970 0
45 960 961 962 0
-45 -960 0
-45 -962 0
-45 -961 0
44 46 -806 0
46 -806 1115 0
-46 806 0
-44 -46 -1115 0
47 -1002 1009 0
-47 1002 0
-47 -1009 0
48 -49 -1002 0
13 15 48 0
13 48 -1002 0
15 48 -49 0
-15 -48 1002 0
-13 -48 49 0
49 51 1009 0
49 -50 51 0
49 51 1002 0
-49 -51 0
-49 50 -1002 -1009 0
50 -1010 1011 0
-50 1010 0
-50 -1011 0
51 52 -53 0
-51 -52 0
-51 53 0
52 1013 -1014 -1015 1016 0
-52 -1013 0
-52 -1016 0
-52 1015 0
-52 1014 0
53 -1002 -1009 -1010 1011 0
-53 1010 0
-53 -1011 0
-53 1002 0
-53 1009 0
54 -55 -65 0
54 -55 104 0
-54 55 0
-54 65 -104 0
55 -56 -58 0
-55 56 0
-55 58 0
56 -57 -588 -617 -646 0
-56 57 0
-56 588 0
-56 646 0
-56 617 0
57 -675 -704 -733 0
-57 675 0
-57 704 0
-57 733 0
58 59 -559 0
-58 559 0
-58 -59 0
59 -60 -61 0
59 -61 -64 0
-59 61 0
-59 60 64 0
60 530 0
60 -531 -537 0
60 531 -538 0
-60 -530 531 538 0
-60 -530 -531 537 0
-60 61 -62 0
61 -62 -63 0
-61 62 0
60 -61 63 0
62 530 0
62 -531 537 0
62 531 538 0
-62 -530 531 -538 0
-62 -530 -531 -537 0
-60 63 0
63 539 -546 0
63 -539 -545 0
60 -63 -539 545 0
60 -63 539 546 0
-60 64 0
64 -539 545 0
64 539 546 0
60 -64 -539 -545 0
60 -64 539 -546 0
65 -66 -103 -783 0
65 66 -67 -103 0
-65 103 0
-65 -66 783 0
-65 66 67 0
66 525 -527 0
-66 -525 0
-66 527 0
67 -68 -782 0
67 68 -69 0
-67 -68 782 0
-67 68 69 0
68 497 -499 0
-68 -497 0
-68 499 0
69 70 95 102 0
69 70 95 -98 0
-69 -70 0
-69 -95 0
-69 98 -102 0
70 -93 298 -473 0
70 71 298 473 0
-70 -298 0
-70 93 -473 0
-70 -71 473 0
71 -72 -779 0
-71 779 0
-71 72 0
72 73 -77 0
-72 -73 0
-72 77 0
73 -74 -330 0
73 -76 -330 0
73 -75 -330 0
-73 330 0
-73 74 75 76 0
74 -331 332 333 0
-74 331 0
-74 -333 0
-74 -332 0
75 336 339 340 0
-75 -336 0
-75 -340 0
-75 -339 0
76 -336 337 338 0
-76 336 0
-76 -338 0
-76 -337 0
77 78 -85 0
77 78 88 -363 0
-77 -78 0
-77 85 -88 0
-77 85 363 0
78 -79 82 0
78 82 384 0
-78 -82 0
-78 79 -384 0
79 -81 387 390 0
79 -80 -81 387 0
-79 -387 0
-79 81 0
-79 80 -390 0
80 388 -389 0
-80 -388 0
-80 389 0
81 385 386 0
-81 -385 0
-81 -386 0
80 -81 82 83 -84 0
81 -82 0
-82 -83 0
-80 -82 0
-82 84 0
83 396 397 0
83 396 404 405 0
-83 -396 0
-83 -397 -404 0
-83 -397 -405 0
84 -384 387 390 -391 0
-84 391 0
-84 -390 0
-84 384 0
-84 -387 0
85 86 -356 0
85 87 -356 -362 0
-85 356 0
-85 -86 362 0
-85 -86 -87 0
86 357 358 359 0
-86 -357 0
-86 -359 0
-86 -358 0
87 360 -361 0
-87 -360 0
-87 361 0
88 89 92 0
-88 -89 0
-88 -92 0
89 -90 -91 -376 0
89 -90 -91 -377 0
-89 91 0
-89 90 0
-89 376 377 0
-86 87 90 -356 -363 0
86 -90 0
-87 -90 0
-90 356 0
-90 363 0
91 362 368 -369 0
-91 369 0
-91 -368 0
-91 -362 0
-90 92 362 -368 0
90 -92 0
-92 368 0
-92 -362 0
93 -94 780 0
71 93 94 0
-93 -94 -780 0
-71 -93 94 0
94 439 -441 0
-94 -439 0
-94 441 0
95 -96 -97 -483 0
95 -96 -97 -484 0
-95 97 0
-95 96 0
-95 483 484 0
96 486 487 488 489 0
-96 -489 0
-96 -488 0
-96 -486 0
-96 -487 0
97 -480 -481 -482 485 0
-97 482 0
-97 -485 0
-97 480 0
-97 481 0
93 98 -99 0
-93 -98 0
-98 99 0
99 100 101 0
-99 -100 0
-99 -101 0
100 452 453 454 0
-100 -452 0
-100 -454 0
-100 -453 0
101 460 -462 0
-101 -460 0
-101 462 0
101 102 -298 0
102 -298 781 0
-102 298 0
-101 -102 -781 0
103 -494 501 0
-103 494 0
-103 -501 0
104 -105 -494 0
67 69 104 0
67 104 -494 0
69 104 -105 0
-69 -104 494 0
-67 -104 105 0
105 107 501 0
105 -106 107 0
105 107 494 0
-105 -107 0
-105 106 -494 -501 0
106 -502 503 0
-106 502 0
-106 -503 0
107 108 -109 0
-107 -108 0
-107 109 0
108 505 -506 -507 508 0
-108 -505 0
-108 -508 0
-108 507 0
-108 506 0
109 -494 -501 -502 503 0
-109 502 0
-109 -503 0
-109 494 0
-109 501 0
-5 110 -111 0
-5 110 119 0
5 -110 0
-110 111 -119 0
12 -47 111 -112 0
-12 -47 111 -1139 0
47 -111 0
12 -111 112 0
-12 -111 1139 0
-14 112 -1138 0
14 112 -113 0
-14 -112 1138 0
14 -112 113 0
39 113 114 118 0
39 113 114 -117 0
-39 -113 0
-113 -114 0
-113 117 -118 0
114 -116 806 -981 0
114 115 806 981 0
-114 -806 0
-114 116 -981 0
-114 -115 981 0
-18 115 -1135 0
-115 1135 0
18 -115 0
-38 116 1136 0
38 115 116 0
-38 -116 -1136 0
38 -115 -116 0
-43 116 117 0
43 -117 0
-116 -117 0
44 118 -806 0
118 -806 1137 0
-118 806 0
-44 -118 -1137 0
-49 113 119 0
112 119 -1002 0
-49 119 -1002 0
112 113 119 0
49 -112 -119 0
-113 -119 1002 0
-55 120 -121 0
-55 120 129 0
55 -120 0
-120 121 -129 0
66 -103 121 -122 0
-66 -103 121 -805 0
103 -121 0
66 -121 122 0
-66 -121 805 0
-68 122 -804 0
68 122 -123 0
-68 -122 804 0
68 -122 123 0
95 123 124 128 0
95 123 124 -127 0
-95 -123 0
-123 -124 0
-123 127 -128 0
124 -126 298 -473 0
124 125 298 473 0
-124 -298 0
-124 126 -473 0
-124 -125 473 0
-72 125 -801 0
-125 801 0
72 -125 0
-94 126 802 0
94 125 126 0
-94 -126 -802 0
94 -125 -126 0
-99 126 127 0
99 -127 0
-126 -127 0
101 128 -298 0
128 -298 803 0
-128 298 0
-101 -128 -803 0
-105 123 129 0
122 129 -494 0
-105 129 -494 0
122 123 129 0
105 -122 -129 0
-123 -129 494 0
110 130 -131 -170 0
-120 130 -131 -170 0
-130 170 0
-130 131 0
-110 120 -130 0
131 -132 -142 161 0
131 132 142 -152 0
131 132 142 161 0
131 -132 -142 -152 0
-131 132 -142 0
-131 -132 142 0
-131 152 -161 0
-5 132 -133 0
-5 132 141 0
5 -132 0
-132 133 -141 0
12 -47 133 -134 0
-12 -47 133 -1108 0
47 -133 0
12 -133 134 0
-12 -133 1108 0
-14 134 -1107 0
14 134 -135 0
-14 -134 1107 0
14 -134 135 0
39 135 136 140 0
39 135 136 -139 0
-39 -135 0
-135 -136 0
-135 139 -140 0
136 137 -806 1106 0
44 136 137 -806 0
-136 806 0
-136 -137 0
-44 -136 -1106 0
-43 137 138 0
43 -137 0
-137 -138 0
18 38 138 0
-38 138 1105 0
38 138 811 0
-38 -138 -1105 0
-18 38 -138 -811 0
-18 38 139 -811 0
-18 139 -811 981 0
18 -139 0
-139 811 0
-38 -139 -981 0
140 806 1105 0
140 806 981 0
38 140 806 0
-140 -806 0
-38 -140 -981 -1105 0
-49 135 141 0
134 141 -1002 0
-49 141 -1002 0
134 135 141 0
49 -134 -141 0
-135 -141 1002 0
-55 142 -143 0
-55 142 151 0
55 -142 0
-142 143 -151 0
66 -103 143 -144 0
-66 -103 143 -774 0
103 -143 0
66 -143 144 0
-66 -143 774 0
-68 144 -773 0
68 144 -145 0
-68 -144 773 0
68 -144 145 0
95 145 146 150 0
95 145 146 -149 0
-95 -145 0
-145 -146 0
-145 149 -150 0
146 147 -298 772 0
101 146 147 -298 0
-146 298 0
-146 -147 0
-101 -146 -772 0
-99 147 148 0
99 -147 0
-147 -148 0
72 94 148 0
-94 148 771 0
94 148 303 0
-94 -148 -771 0
-72 94 -148 -303 0
-72 94 149 -303 0
-72 149 -303 473 0
72 -149 0
-149 303 0
-94 -149 -473 0
150 298 771 0
150 298 473 0
94 150 298 0
-150 -298 0
-94 -150 -473 -771 0
-105 145 151 0
144 151 -494 0
-105 151 -494 0
144 145 151 0
105 -144 -151 0
-145 -151 494 0
-5 152 -153 0
-5 152 160 0
5 -152 0
-152 153 -160 0
12 -47 153 -154 0
-12 -47 153 -1112 0
47 -153 0
12 -153 154 0
-12 -153 1112 0
-14 154 -1111 0
14 154 -155 0
-14 -154 1111 0
14 -154 155 0
39 155 156 159 0
39 155 156 -158 0
-39 -155 0
-155 -156 0
-155 158 -159 0
156 -157 806 -981 0
18 156 806 981 0
-156 -806 0
-156 157 -981 0
-18 -156 981 0
-38 157 1109 0
18 38 157 0
-38 -157 -1109 0
-18 38 -157 0
-43 157 158 0
43 -158 0
-157 -158 0
44 159 -806 0
159 -806 1110 0
-159 806 0
-44 -159 -1110 0
-49 155 160 0
154 160 -1002 0
-49 160 -1002 0
154 155 160 0
49 -154 -160 0
-155 -160 1002 0
-55 161 -162 0
-55 161 169 0
55 -161 0
-161 162 -169 0
66 -103 162 -163 0
-66 -103 162 -778 0
103 -162 0
66 -162 163 0
-66 -162 778 0
-68 163 -777 0
68 163 -164 0
-68 -163 777 0
68 -163 164 0
95 164 165 168 0
95 164 165 -167 0
-95 -164 0
-164 -165 0
-164 167 -168 0
165 -166 298 -473 0
72 165 298 473 0
-165 -298 0
-165 166 -473 0
-72 -165 473 0
-94 166 775 0
72 94 166 0
-94 -166 -775 0
-72 94 -166 0
-99 166 167 0
99 -167 0
-166 -167 0
101 168 -298 0
168 -298 776 0
-168 298 0
-101 -168 -776 0
-105 164 169 0
163 169 -494 0
-105 169 -494 0
163 164 169 0
105 -163 -169 0
-164 -169 494 0
152 170 -171 -252 0
-161 170 -171 -252 0
-170 252 0
-170 171 0
-152 161 -170 0
171 172 184 -199 -234 0
171 -172 -184 -199 -234 0
-171 234 0
-171 -172 184 0
-171 199 0
-171 172 -184 0
-5 172 -173 0
-5 172 -182 0
-5 172 -181 0
5 -172 0
-172 173 181 182 0
173 176 -177 0
-43 173 174 -177 0
-173 177 0
-173 -174 -176 0
43 -173 -176 0
-38 174 1128 0
38 174 175 0
-38 -174 -1128 0
38 -174 -175 0
-18 175 -1127 0
-175 1127 0
18 -175 0
44 176 -806 0
176 -806 1129 0
-176 806 0
-44 -176 -1129 0
177 178 -179 0
-177 -178 0
-177 179 0
-174 178 806 -981 0
175 178 806 981 0
-178 -806 0
174 -178 -981 0
-175 -178 981 0
39 179 1002 0
14 39 179 180 0
-39 -179 0
-179 -180 -1002 0
-14 -179 -1002 0
-12 51 180 1009 0
-50 51 180 -1009 0
-51 -180 0
50 -180 -1009 0
12 -180 1009 0
-12 -47 181 -1131 0
-181 1131 0
12 -181 0
47 -181 0
-14 182 -183 -1130 0
-182 1130 0
14 -182 0
-182 183 0
180 183 -1002 0
-183 1002 0
-180 -183 0
184 -185 -196 0
184 -193 -196 0
184 -194 -196 0
-184 196 0
-184 185 193 194 0
185 188 -189 0
-99 185 186 -189 0
-185 189 0
-185 -186 -188 0
99 -185 -188 0
-94 186 794 0
94 186 187 0
-94 -186 -794 0
94 -186 -187 0
-72 187 -793 0
-187 793 0
72 -187 0
101 188 -298 0
188 -298 795 0
-188 298 0
-101 -188 -795 0
189 190 -191 0
-189 -190 0
-189 191 0
-186 190 298 -473 0
187 190 298 473 0
-190 -298 0
186 -190 -473 0
-187 -190 473 0
95 191 494 0
68 95 191 192 0
-95 -191 0
-191 -192 -494 0
-68 -191 -494 0
-66 107 192 501 0
-106 107 192 -501 0
-107 -192 0
106 -192 -501 0
66 -192 501 0
-66 -103 193 -797 0
-193 797 0
66 -193 0
103 -193 0
-68 194 -195 -796 0
-194 796 0
68 -194 0
-194 195 0
192 195 -494 0
-195 494 0
-192 -195 0
-56 59 196 198 0
-56 59 196 197 0
56 -196 0
-59 -196 0
-196 -197 -198 0
197 559 0
197 -560 -566 0
197 560 -567 0
-197 -559 560 567 0
-197 -559 -560 566 0
198 559 0
198 -560 566 0
198 560 567 0
-198 -559 560 -567 0
-198 -559 -560 -566 0
199 200 223 225 -228 0
199 200 -223 -225 -228 0
-199 228 0
-199 -223 225 0
-199 -200 0
-199 223 -225 0
200 201 -212 0
200 -201 212 0
-200 -201 -212 0
-200 201 212 0
201 -205 298 0
100 201 -202 -205 0
-201 205 0
-201 202 -298 0
-100 -201 -298 0
202 417 -800 0
202 -203 -417 0
-202 203 -417 0
-202 417 800 0
-77 203 -762 0
73 -77 203 204 0
77 -203 0
-203 -204 762 0
-73 -203 762 0
204 309 799 0
-204 -309 0
-204 -799 0
205 206 -209 0
-205 -206 0
-205 209 0
202 206 207 0
202 203 206 0
203 206 -207 298 0
-202 -206 207 0
-203 -206 -207 0
-202 -206 -298 0
207 -208 473 474 0
-207 208 0
-207 -474 0
-207 -473 0
208 475 476 477 0
-208 -475 0
-208 -477 0
-208 -476 0
-56 209 210 -211 -559 0
-209 211 0
-209 559 0
56 -209 0
-209 -210 0
-61 210 530 0
-61 -64 210 0
61 -210 0
64 -210 -530 0
95 109 211 0
95 108 211 0
-95 -211 0
-108 -109 -211 0
212 213 -220 806 0
212 213 -219 -220 0
-212 220 0
-212 -213 0
-212 219 -806 0
213 214 218 0
213 216 218 0
213 214 -216 806 0
-213 -214 -216 0
-213 216 -218 0
-213 -218 -806 0
-19 214 -1096 0
-19 33 214 215 0
19 -214 0
-214 -215 1096 0
-33 -214 1096 0
215 817 1133 0
-215 -817 0
-215 -1133 0
216 -217 981 982 0
-216 217 0
-216 -982 0
-216 -981 0
217 983 984 985 0
-217 -983 0
-217 -985 0
-217 -984 0
218 925 -1134 0
-214 218 -925 0
214 -218 -925 0
-218 925 1134 0
45 -218 219 0
-45 -219 0
218 -219 0
7 220 -221 0
10 220 -221 -1038 0
-220 221 0
-7 -10 -220 0
-7 -220 1038 0
221 -222 -1067 0
-221 1067 0
-221 222 0
39 53 222 0
39 52 222 0
-39 -222 0
-52 -53 -222 0
-220 223 -224 806 0
45 -220 223 -224 0
-223 224 0
220 -223 0
-45 -223 -806 0
-19 224 -1096 1098 0
-224 1096 0
-224 -1098 0
19 -224 0
-77 -209 225 226 -227 0
-225 227 0
77 -225 0
209 -225 0
-225 -226 0
-100 226 -298 0
-226 298 0
100 -226 0
227 -762 764 0
-227 762 0
-227 -764 0
9 228 -229 0
8 228 -229 0
10 228 -229 0
-228 229 0
-8 -9 -10 -228 0
20 27 229 -230 0
-26 27 229 -230 0
-229 230 0
-27 -229 0
-20 26 -229 0
33 -222 230 231 -232 0
222 -230 0
-230 -231 0
-33 -230 0
-230 232 0
-45 231 -806 0
-231 806 0
45 -231 0
232 233 -810 -1067 0
232 233 811 -1067 0
-232 1067 0
-232 -233 0
-232 810 -811 0
233 808 809 0
-233 -808 0
-233 -809 0
234 -235 -243 0
234 235 243 0
-234 235 -243 0
-234 -235 243 0
235 -239 806 0
45 235 236 -239 0
-235 239 0
-235 -236 -806 0
-45 -235 -806 0
236 237 -925 0
-224 236 925 1104 0
-236 925 -1104 0
-236 -237 -925 0
224 -236 925 0
-19 237 -238 0
19 -237 0
-237 238 0
238 -1096 -1098 0
33 238 1096 0
238 -1096 -1102 0
-33 -238 1096 0
-238 -1096 1098 1102 0
-220 239 -240 241 0
-220 236 239 241 0
220 -239 0
-239 -241 0
-236 -239 240 0
240 981 982 0
-240 -981 0
-240 -982 0
237 241 -242 0
217 -236 241 0
217 241 -242 0
-236 237 241 0
236 -241 242 0
-217 -237 -241 0
-216 242 806 0
-242 -806 0
216 -242 0
243 -248 298 0
100 243 244 -248 0
-243 248 0
-243 -244 -298 0
-100 -243 -298 0
244 245 -417 0
-77 244 -247 417 0
-244 -245 -417 0
77 -244 417 0
-244 247 417 0
-77 245 -246 0
77 -245 0
-245 246 0
246 -762 -764 0
73 246 762 0
246 -762 -768 0
-73 -246 762 0
-246 -762 764 768 0
247 -762 764 770 0
-247 762 0
-247 -770 0
-247 -764 0
-209 248 -249 250 0
-209 244 248 250 0
209 -248 0
-248 -250 0
-244 -248 249 0
249 473 474 0
-249 -473 0
-249 -474 0
245 250 -251 0
208 -244 250 0
208 250 -251 0
-244 245 250 0
244 -250 251 0
-208 -245 -250 0
-207 251 298 0
-251 -298 0
207 -251 0
252 253 263 -274 -283 0
252 -253 -263 -274 -283 0
252 253 263 274 283 0
252 -253 -263 274 283 0
-252 253 -263 0
-252 -253 263 0
-252 274 -283 0
-252 -274 283 0
253 -254 -261 0
253 256 -259 -261 0
-253 261 0
-253 254 -256 0
-253 254 259 0
-14 254 -1002 0
254 -255 -1002 0
-254 1002 0
14 -254 255 0
-12 255 1009 -1126 0
12 -255 0
-255 1126 0
-255 -1009 0
256 -258 806 -981 0
256 257 806 981 0
-256 -806 0
-256 258 -981 0
-256 -257 981 0
-18 257 -810 0
-257 810 0
18 -257 0
-38 258 1123 0
38 257 258 0
-38 -258 -1123 0
38 -257 -258 0
39 259 260 0
39 -43 258 259 0
-39 -259 0
43 -259 -260 0
-258 -259 -260 0
44 260 -806 0
260 -806 1124 0
-260 806 0
-44 -260 -1124 0
-5 261 1002 0
-5 -255 261 0
-5 261 -262 0
5 -261 0
255 -261 262 -1002 0
180 262 -1125 0
14 180 262 0
-180 -262 0
-14 -262 1125 0
-56 -58 263 264 272 0
58 -263 0
-263 -272 0
56 -263 0
-263 -264 0
264 266 494 0
68 264 265 266 0
-264 -266 0
-264 -265 -494 0
-68 -264 -494 0
-66 265 501 -792 0
66 -265 0
-265 792 0
-265 -501 0
95 266 267 271 0
95 266 267 -270 0
-95 -266 0
-266 -267 0
-266 270 -271 0
267 -269 298 -473 0
267 268 298 473 0
-267 -298 0
-267 269 -473 0
-267 -268 473 0
-72 268 -302 0
-268 302 0
72 -268 0
-94 269 789 0
94 268 269 0
-94 -269 -789 0
94 -268 -269 0
-99 269 270 0
99 -270 0
-269 -270 0
101 271 -298 0
271 -298 790 0
-271 298 0
-101 -271 -790 0
-192 272 -273 0
-68 272 -273 791 0
-272 273 0
192 -272 -791 0
68 192 -272 0
265 273 -494 0
-273 494 0
-265 -273 0
-5 274 -275 0
-5 274 -282 0
-5 274 -281 0
5 -274 0
-274 275 281 282 0
275 278 -279 0
-43 275 276 -279 0
-275 279 0
-275 -276 -278 0
43 -275 -278 0
-38 276 1119 0
38 276 277 0
-38 -276 -1119 0
38 -276 -277 0
-18 277 -1118 0
-277 1118 0
18 -277 0
44 278 -806 0
278 -806 1120 0
-278 806 0
-44 -278 -1120 0
-179 279 280 0
179 -279 0
-279 -280 0
-276 280 806 -981 0
277 280 806 981 0
-280 -806 0
276 -280 -981 0
-277 -280 981 0
-12 -47 281 -1122 0
-281 1122 0
12 -281 0
47 -281 0
-14 -183 282 -1121 0
-282 1121 0
14 -282 0
183 -282 0
-196 283 -284 0
-196 283 -291 0
-196 283 -290 0
196 -283 0
-283 284 290 291 0
284 287 -288 0
-99 284 285 -288 0
-284 288 0
-284 -285 -287 0
99 -284 -287 0
-94 285 785 0
94 285 286 0
-94 -285 -785 0
94 -285 -286 0
-72 286 -784 0
-286 784 0
72 -286 0
101 287 -298 0
287 -298 786 0
-287 298 0
-101 -287 -786 0
-191 288 289 0
191 -288 0
-288 -289 0
-285 289 298 -473 0
286 289 298 473 0
-289 -298 0
285 -289 -473 0
-286 -289 473 0
-66 -103 290 -788 0
-290 788 0
66 -290 0
103 -290 0
-68 -195 291 -787 0
-291 787 0
68 -291 0
195 -291 0
-62 -63 -64 292 0
62 -292 0
63 -292 0
64 -292 0
-85 293 -294 0
-89 293 -294 0
-92 293 -294 0
-293 294 0
85 89 92 -293 0
73 78 -211 294 -295 0
-73 -294 0
-294 295 0
211 -294 0
-78 -294 0
-57 226 295 -296 -297 0
-295 297 0
57 -295 0
-295 296 0
-226 -295 0
296 -559 -588 -617 -646 0
-296 646 0
-296 559 0
-296 617 0
-296 588 0
297 -301 -302 0
297 -300 303 0
297 -300 -302 0
297 -301 303 0
-297 302 -303 0
-297 300 301 0
1 2 0
-1 -2 0
1140 0

